
Welcome to IBM(R) ILOG(R) CPLEX(R) Interactive Optimizer 22.1.1.0
  with Simplex, Mixed Integer & Barrier Optimizers
5725-A06 5725-A29 5724-Y48 5724-Y49 5724-Y54 5724-Y55 5655-Y21
Copyright IBM Corp. 1988, 2022.  All Rights Reserved.

Type 'help' for a list of available commands.
Type 'help' followed by a command name for more
information on commands.

CPLEX> Selected objective sense:  MINIMIZE
Selected objective  name:  00000000
Selected RHS        name:  RHS1
Selected bound      name:  BOUND
Problem 'ee.mps' read.
Read time = 0.03 sec. (3.17 ticks)
CPLEX> New value for time limit in seconds: 7200
CPLEX> New value for parallel optimization mode: -1
CPLEX> New value for default parallel thread count: 40
CPLEX> New value for mixed integer optimality gap tolerance: 1e-13
CPLEX> Version identifier: 22.1.1.0 | 2022-11-28 | 9160aff4d
CPXPARAM_Threads                                 40
CPXPARAM_Parallel                                -1
CPXPARAM_TimeLimit                               7200
CPXPARAM_MIP_Tolerances_MIPGap                   1e-13
Found incumbent of value 0.000000 after 0.00 sec. (0.31 ticks)
Tried aggregator 2 times.
MIP Presolve eliminated 180 rows and 2745 columns.
MIP Presolve modified 6090 coefficients.
Aggregator did 713 substitutions.
Reduced MIP has 3635 rows, 7835 columns, and 28930 nonzeros.
Reduced MIP has 7835 binaries, 0 generals, 0 SOSs, and 0 indicators.
Presolve time = 0.07 sec. (68.90 ticks)
Probing time = 0.03 sec. (5.32 ticks)
Tried aggregator 1 time.
Detecting symmetries...
Reduced MIP has 3635 rows, 7835 columns, and 28930 nonzeros.
Reduced MIP has 7835 binaries, 0 generals, 0 SOSs, and 0 indicators.
Presolve time = 0.03 sec. (22.01 ticks)
Probing time = 0.02 sec. (5.12 ticks)
Clique table members: 18781.
MIP emphasis: balance optimality and feasibility.
MIP search method: dynamic search.
Parallel mode: opportunistic, using up to 40 threads.
Root relaxation solution time = 0.13 sec. (122.20 ticks)

        Nodes                                         Cuts/
   Node  Left     Objective  IInf  Best Integer    Best Bound    ItCnt     Gap

*     0+    0                            0.0000  -1.54000e+13              --- 
*     0+    0                      -8.40000e+12  -1.54000e+13            83.33%
*     0+    0                      -9.60000e+12  -1.54000e+13            60.42%
      0     0  -1.53900e+13    61  -9.60000e+12  -1.53900e+13     2450   60.31%
*     0+    0                      -1.53900e+13  -1.53900e+13             0.00%
      0     0  -1.53900e+13   164  -1.53900e+13      Cuts: 62     2904    0.00%
      0     0  -1.53900e+13   222  -1.53900e+13      Cuts: 35     3061    0.00%
*     0+    0                      -1.53900e+13  -1.53900e+13             0.00%
*     0+    0                      -1.53900e+13  -1.53900e+13             0.00%
      0     2  -1.53900e+13   189  -1.53900e+13  -1.53900e+13     3061    0.00%
Elapsed time = 2.23 sec. (1181.06 ticks, tree = 0.02 MB, solutions = 8)
     67    11  -1.53900e+13   138  -1.53900e+13  -1.53900e+13     5718    0.00%
    230   100  -1.53900e+13   236  -1.53900e+13  -1.53900e+13    41467    0.00%
    543   345  -1.53900e+13   102  -1.53900e+13  -1.53900e+13   141650    0.00%
   1050   209  -1.53900e+13   101  -1.53900e+13  -1.53900e+13    84979    0.00%
   1494   545    infeasible        -1.53900e+13  -1.53900e+13   210823    0.00%
   1913   926  -1.53900e+13   130  -1.53900e+13  -1.53900e+13   343438    0.00%
   2144   642    infeasible        -1.53900e+13  -1.53900e+13   243102    0.00%
   2344   726  -1.53900e+13   139  -1.53900e+13  -1.53900e+13   271483    0.00%
   2542  1060  -1.53900e+13   149  -1.53900e+13  -1.53900e+13   407256    0.00%
   3155  2213        cutoff        -1.53900e+13  -1.53900e+13  1183391    0.00%
Elapsed time = 8.86 sec. (4295.85 ticks, tree = 6.10 MB, solutions = 9)
   3777  1733  -1.53900e+13   289  -1.53900e+13  -1.53900e+13   780508    0.00%
   4583  1778  -1.53900e+13   384  -1.53900e+13  -1.53900e+13   819291    0.00%
   5308  2447        cutoff        -1.53900e+13  -1.53900e+13  1423850    0.00%
   5860  2205        cutoff        -1.53900e+13  -1.53900e+13  1180717    0.00%
   6339  3105        cutoff        -1.53900e+13  -1.53900e+13  2064595    0.00%
   6847  2809        cutoff        -1.53900e+13  -1.53900e+13  1798236    0.00%
   7347  2914  -1.53900e+13    52  -1.53900e+13  -1.53900e+13  1904743    0.00%
   7841  2965        cutoff        -1.53900e+13  -1.53900e+13  1962671    0.00%
   8229  3112        cutoff        -1.53900e+13  -1.53900e+13  2076710    0.00%
   8505  3521  -1.53900e+13   174  -1.53900e+13  -1.53900e+13  3082899    0.00%
Elapsed time = 24.14 sec. (13850.93 ticks, tree = 14.93 MB, solutions = 9)
   8745  3445  -1.53900e+13   170  -1.53900e+13  -1.53900e+13  2513866    0.00%
   8978  3468  -1.53900e+13   188  -1.53900e+13  -1.53900e+13  2718320    0.00%
   9134  3518        cutoff        -1.53900e+13  -1.53900e+13  3020096    0.00%
   9256  3525  -1.53900e+13    82  -1.53900e+13  -1.53900e+13  3110180    0.00%
   9397  3515  -1.53900e+13   163  -1.53900e+13  -1.53900e+13  3189114    0.00%
   9449  3509  -1.53900e+13   110  -1.53900e+13  -1.53900e+13  3227804    0.00%

Performing restart 1

Repeating presolve.
Tried aggregator 2 times.
MIP Presolve eliminated 28 rows and 77 columns.
MIP Presolve modified 1878 coefficients.
Aggregator did 22 substitutions.
Reduced MIP has 3509 rows, 7736 columns, and 27987 nonzeros.
Reduced MIP has 7736 binaries, 0 generals, 0 SOSs, and 0 indicators.
Presolve time = 0.04 sec. (30.34 ticks)
Tried aggregator 2 times.
MIP Presolve eliminated 9 rows and 38 columns.
MIP Presolve modified 28 coefficients.
Aggregator did 18 substitutions.
Reduced MIP has 3482 rows, 7674 columns, and 27761 nonzeros.
Reduced MIP has 7674 binaries, 0 generals, 0 SOSs, and 0 indicators.
Presolve time = 0.06 sec. (53.46 ticks)
Represolve time = 0.20 sec. (130.83 ticks)
   9452     0  -1.53900e+13   256  -1.53900e+13      Cuts: 49  3858868    0.00%
   9452     0  -1.53900e+13   339  -1.53900e+13      Cuts: 53  3859784    0.00%
   9452     0  -1.53900e+13   354  -1.53900e+13      Cuts: 55  3860316    0.00%
   9452     0  -1.53900e+13   277  -1.53900e+13      Cuts: 42  3861275    0.00%
   9452     0  -1.53900e+13   351  -1.53900e+13      Cuts: 65  3861879    0.00%
   9452     0  -1.53900e+13   285  -1.53900e+13      Cuts: 78  3862184    0.00%
   9452     0  -1.53900e+13   311  -1.53900e+13      Cuts: 32  3862548    0.00%
   9452     0  -1.53900e+13   296  -1.53900e+13      Cuts: 46  3862906    0.00%
   9452     0  -1.53900e+13   144  -1.53900e+13      Cuts: 76  3863425    0.00%
   9452     0  -1.53900e+13   225  -1.53900e+13      Cuts: 24  3863577    0.00%
   9452     0  -1.53900e+13   274  -1.53900e+13      Cuts: 27  3863818    0.00%
   9452     0  -1.53900e+13   296  -1.53900e+13  ZeroHalf: 21  3863922    0.00%
   9452     0  -1.53900e+13   291  -1.53900e+13  ZeroHalf: 11  3863988    0.00%
   9452     0  -1.53900e+13   293  -1.53900e+13      Cuts: 15  3864151    0.00%
   9452    12        cutoff        -1.53900e+13  -1.53900e+13  3866228    0.00%
  10663    80  -1.53900e+13   271  -1.53900e+13  -1.53900e+13  3887211    0.00%
  12696    84  -1.53900e+13   248  -1.53900e+13  -1.53900e+13  3879270    0.00%
  13441    45  -1.53900e+13   172  -1.53900e+13  -1.53900e+13  4012515    0.00%
Elapsed time = 40.05 sec. (27769.04 ticks, tree = 0.64 MB, solutions = 11)

GUB cover cuts applied:  9
Clique cuts applied:  15
Cover cuts applied:  448
Flow cuts applied:  2
Mixed integer rounding cuts applied:  6
Zero-half cuts applied:  49
Lift and project cuts applied:  3
Gomory fractional cuts applied:  13

Root node processing (before b&c):
  Real time             =    1.29 sec. (1167.72 ticks)
Parallel b&c, 40 threads:
  Real time             =   38.79 sec. (26948.56 ticks)
  Sync time (average)   =    4.64 sec.
  Wait time (average)   =    0.16 sec.
                          ------------
Total (root+branch&cut) =   40.09 sec. (28116.28 ticks)

Solution pool: 11 solutions saved.

MIP - Integer optimal solution:  Objective = -1.5389999589e+13
Solution time =   40.21 sec.  Iterations = 4036408  Nodes = 13492
Deterministic time = 28116.32 ticks  (699.18 ticks/sec)

CPLEX> Solution 'p12' written to file 'ee.sol'.
CPLEX> 